F=506;
S=23;
M=5;
A=[1,3,10,70,500];
B=[-0,0.66,5.35,59.35,489.35];
Si=[{0,6,1},
    {0,2},
    {0,15,3},
    {0,15,4},
    {0,6,5},
    {0,6},
    {0,15,4,7},
    {0,15,8},
    {0,2,9},
    {0,2,10},
    {0,6,1,11},
    {0,6,1,12},
    {0,2,13},
    {0,15,8,14},
    {0,15},
    {0,6,16},
    {0,6,1,17},
    {0,6,18},
    {0,6,16,19},
    {0,2,20},
    {0,6,1,11,21},
    {0,6,1,22},
    {1,6,0},
    {1,6,0,2},
    {1,3},
    {1,3,15,4},
    {1,6,5},
    {1,6},
    {1,3,15,4,7},
    {1,3,15,8},
    {1,11,9},
    {1,11,9,10},
    {1,11},
    {1,12},
    {1,12,13},
    {1,3,15,8,14},
    {1,3,15},
    {1,6,16},
    {1,17},
    {1,6,18},
    {1,6,16,19},
    {1,6,20},
    {1,11,21},
    {1,22},
    {2,0},
    {2,0,6,1},
    {2,0,15,3},
    {2,0,15,4},
    {2,0,6,5},
    {2,0,6},
    {2,0,15,4,7},
    {2,0,15,8},
    {2,9},
    {2,10},
    {2,9,11},
    {2,13,12},
    {2,13},
    {2,0,15,8,14},
    {2,0,15},
    {2,9,16},
    {2,20,17},
    {2,0,6,18},
    {2,9,16,19},
    {2,20},
    {2,9,11,21},
    {2,9,16,22},
    {3,15,0},
    {3,1},
    {3,15,0,2},
    {3,15,4},
    {3,1,6,5},
    {3,1,6},
    {3,15,4,7},
    {3,15,8},
    {3,15,9},
    {3,15,9,10},
    {3,1,11},
    {3,1,12},
    {3,1,12,13},
    {3,15,8,14},
    {3,15},
    {3,1,6,16},
    {3,1,17},
    {3,1,6,18},
    {3,15,8,14,19},
    {3,1,6,20},
    {3,1,11,21},
    {3,1,22},
    {4,15,0},
    {4,15,3,1},
    {4,15,0,2},
    {4,15,3},
    {4,15,0,6,5},
    {4,15,0,6},
    {4,7},
    {4,7,8},
    {4,15,9},
    {4,15,9,10},
    {4,15,9,11},
    {4,15,3,1,12},
    {4,15,0,2,13},
    {4,7,8,14},
    {4,15},
    {4,15,9,16},
    {4,15,3,1,17},
    {4,15,0,6,18},
    {4,7,8,14,19},
    {4,15,0,2,20},
    {4,15,9,11,21},
    {4,15,3,1,22},
    {5,6,0},
    {5,6,1},
    {5,6,0,2},
    {5,6,1,3},
    {5,6,0,15,4},
    {5,6},
    {5,6,0,15,4,7},
    {5,6,0,15,8},
    {5,6,16,9},
    {5,6,0,2,10},
    {5,6,1,11},
    {5,18,12},
    {5,18,12,13},
    {5,6,16,19,14},
    {5,6,0,15},
    {5,6,16},
    {5,6,1,17},
    {5,18},
    {5,6,16,19},
    {5,6,20},
    {5,6,1,11,21},
    {5,6,1,22},
    {6,0},
    {6,1},
    {6,0,2},
    {6,1,3},
    {6,0,15,4},
    {6,5},
    {6,0,15,4,7},
    {6,0,15,8},
    {6,16,9},
    {6,0,2,10},
    {6,1,11},
    {6,1,12},
    {6,0,2,13},
    {6,16,19,14},
    {6,0,15},
    {6,16},
    {6,1,17},
    {6,18},
    {6,16,19},
    {6,20},
    {6,1,11,21},
    {6,1,22},
    {7,4,15,0},
    {7,4,15,3,1},
    {7,4,15,0,2},
    {7,4,15,3},
    {7,4},
    {7,4,15,0,6,5},
    {7,4,15,0,6},
    {7,8},
    {7,4,15,9},
    {7,4,15,9,10},
    {7,4,15,9,11},
    {7,4,15,3,1,12},
    {7,4,15,0,2,13},
    {7,8,14},
    {7,4,15},
    {7,4,15,9,16},
    {7,4,15,3,1,17},
    {7,4,15,0,6,18},
    {7,8,14,19},
    {7,4,15,0,2,20},
    {7,8,14,19,21},
    {7,4,15,3,1,22},
    {8,15,0},
    {8,15,3,1},
    {8,15,0,2},
    {8,15,3},
    {8,7,4},
    {8,15,0,6,5},
    {8,15,0,6},
    {8,7},
    {8,15,9},
    {8,15,9,10},
    {8,15,9,11},
    {8,15,3,1,12},
    {8,15,0,2,13},
    {8,14},
    {8,15},
    {8,15,9,16},
    {8,15,3,1,17},
    {8,15,0,6,18},
    {8,14,19},
    {8,15,0,2,20},
    {8,14,19,21},
    {8,15,3,1,22},
    {9,2,0},
    {9,11,1},
    {9,2},
    {9,15,3},
    {9,15,4},
    {9,16,6,5},
    {9,16,6},
    {9,15,4,7},
    {9,15,8},
    {9,10},
    {9,11},
    {9,16,12},
    {9,2,13},
    {9,15,8,14},
    {9,15},
    {9,16},
    {9,11,1,17},
    {9,16,6,18},
    {9,16,19},
    {9,2,20},
    {9,11,21},
    {9,16,22},
    {10,2,0},
    {10,9,11,1},
    {10,2},
    {10,9,15,3},
    {10,9,15,4},
    {10,2,0,6,5},
    {10,2,0,6},
    {10,9,15,4,7},
    {10,9,15,8},
    {10,9},
    {10,9,11},
    {10,2,13,12},
    {10,2,13},
    {10,9,15,8,14},
    {10,9,15},
    {10,9,16},
    {10,2,20,17},
    {10,2,0,6,18},
    {10,9,16,19},
    {10,2,20},
    {10,9,11,21},
    {10,9,16,22},
    {11,1,6,0},
    {11,1},
    {11,9,2},
    {11,1,3},
    {11,9,15,4},
    {11,1,6,5},
    {11,1,6},
    {11,9,15,4,7},
    {11,9,15,8},
    {11,9},
    {11,9,10},
    {11,1,12},
    {11,9,2,13},
    {11,21,19,14},
    {11,9,15},
    {11,9,16},
    {11,1,17},
    {11,1,6,18},
    {11,21,19},
    {11,1,6,20},
    {11,21},
    {11,1,22},
    {12,1,6,0},
    {12,1},
    {12,13,2},
    {12,1,3},
    {12,1,3,15,4},
    {12,18,5},
    {12,1,6},
    {12,1,3,15,4,7},
    {12,1,3,15,8},
    {12,16,9},
    {12,13,2,10},
    {12,1,11},
    {12,13},
    {12,16,19,14},
    {12,1,3,15},
    {12,16},
    {12,1,17},
    {12,18},
    {12,16,19},
    {12,1,6,20},
    {12,1,11,21},
    {12,1,22},
    {13,2,0},
    {13,12,1},
    {13,2},
    {13,12,1,3},
    {13,2,0,15,4},
    {13,12,18,5},
    {13,2,0,6},
    {13,2,0,15,4,7},
    {13,2,0,15,8},
    {13,2,9},
    {13,2,10},
    {13,2,9,11},
    {13,12},
    {13,12,16,19,14},
    {13,2,0,15},
    {13,12,16},
    {13,12,1,17},
    {13,12,18},
    {13,12,16,19},
    {13,2,20},
    {13,2,9,11,21},
    {13,12,1,22},
    {14,8,15,0},
    {14,8,15,3,1},
    {14,8,15,0,2},
    {14,8,15,3},
    {14,8,7,4},
    {14,19,16,6,5},
    {14,19,16,6},
    {14,8,7},
    {14,8},
    {14,8,15,9},
    {14,8,15,9,10},
    {14,19,21,11},
    {14,19,16,12},
    {14,19,16,12,13},
    {14,8,15},
    {14,19,16},
    {14,8,15,3,1,17},
    {14,19,16,6,18},
    {14,19},
    {14,19,16,6,20},
    {14,19,21},
    {14,19,16,22},
    {15,0},
    {15,3,1},
    {15,0,2},
    {15,3},
    {15,4},
    {15,0,6,5},
    {15,0,6},
    {15,4,7},
    {15,8},
    {15,9},
    {15,9,10},
    {15,9,11},
    {15,3,1,12},
    {15,0,2,13},
    {15,8,14},
    {15,9,16},
    {15,3,1,17},
    {15,0,6,18},
    {15,8,14,19},
    {15,0,2,20},
    {15,9,11,21},
    {15,3,1,22},
    {16,6,0},
    {16,6,1},
    {16,9,2},
    {16,6,1,3},
    {16,9,15,4},
    {16,6,5},
    {16,6},
    {16,9,15,4,7},
    {16,9,15,8},
    {16,9},
    {16,9,10},
    {16,9,11},
    {16,12},
    {16,12,13},
    {16,19,14},
    {16,9,15},
    {16,6,1,17},
    {16,6,18},
    {16,19},
    {16,6,20},
    {16,19,21},
    {16,22},
    {17,1,6,0},
    {17,1},
    {17,20,2},
    {17,1,3},
    {17,1,3,15,4},
    {17,1,6,5},
    {17,1,6},
    {17,1,3,15,4,7},
    {17,1,3,15,8},
    {17,1,11,9},
    {17,20,2,10},
    {17,1,11},
    {17,1,12},
    {17,1,12,13},
    {17,1,3,15,8,14},
    {17,1,3,15},
    {17,1,6,16},
    {17,1,6,18},
    {17,1,6,16,19},
    {17,20},
    {17,1,11,21},
    {17,1,22},
    {18,6,0},
    {18,6,1},
    {18,6,0,2},
    {18,6,1,3},
    {18,6,0,15,4},
    {18,5},
    {18,6},
    {18,6,0,15,4,7},
    {18,6,0,15,8},
    {18,6,16,9},
    {18,6,0,2,10},
    {18,6,1,11},
    {18,12},
    {18,12,13},
    {18,6,16,19,14},
    {18,6,0,15},
    {18,6,16},
    {18,6,1,17},
    {18,6,16,19},
    {18,6,20},
    {18,6,1,11,21},
    {18,6,1,22},
    {19,16,6,0},
    {19,16,6,1},
    {19,16,9,2},
    {19,14,8,15,3},
    {19,14,8,7,4},
    {19,16,6,5},
    {19,16,6},
    {19,14,8,7},
    {19,14,8},
    {19,16,9},
    {19,16,9,10},
    {19,21,11},
    {19,16,12},
    {19,16,12,13},
    {19,14},
    {19,14,8,15},
    {19,16},
    {19,16,6,1,17},
    {19,16,6,18},
    {19,16,6,20},
    {19,21},
    {19,16,22},
    {20,2,0},
    {20,6,1},
    {20,2},
    {20,6,1,3},
    {20,2,0,15,4},
    {20,6,5},
    {20,6},
    {20,2,0,15,4,7},
    {20,2,0,15,8},
    {20,2,9},
    {20,2,10},
    {20,6,1,11},
    {20,6,1,12},
    {20,2,13},
    {20,6,16,19,14},
    {20,2,0,15},
    {20,6,16},
    {20,17},
    {20,6,18},
    {20,6,16,19},
    {20,6,1,11,21},
    {20,6,1,22},
    {21,11,1,6,0},
    {21,11,1},
    {21,11,9,2},
    {21,11,1,3},
    {21,11,9,15,4},
    {21,11,1,6,5},
    {21,11,1,6},
    {21,19,14,8,7},
    {21,19,14,8},
    {21,11,9},
    {21,11,9,10},
    {21,11},
    {21,11,1,12},
    {21,11,9,2,13},
    {21,19,14},
    {21,11,9,15},
    {21,19,16},
    {21,11,1,17},
    {21,11,1,6,18},
    {21,19},
    {21,11,1,6,20},
    {21,11,1,22},
    {22,1,6,0},
    {22,1},
    {22,16,9,2},
    {22,1,3},
    {22,1,3,15,4},
    {22,1,6,5},
    {22,1,6},
    {22,1,3,15,4,7},
    {22,1,3,15,8},
    {22,16,9},
    {22,16,9,10},
    {22,1,11},
    {22,1,12},
    {22,1,12,13},
    {22,16,19,14},
    {22,1,3,15},
    {22,16},
    {22,1,17},
    {22,1,6,18},
    {22,16,19},
    {22,1,6,20},
    {22,1,11,21}];
weight=[217,227,217,250,298,258,211,223,256,258,261,291,279,227,275,242,228,200,260,230,272,268,297,294,298,274,280,227,285,245,215,220,230,223,292,240,212,220,235,248,206,221,204,270,242,286,242,214,213,298,276,279,224,202,279,273,230,253,203,285,257,221,222,273,281,221,222,296,202,234,259,258,246,226,288,224,284,291,268,285,262,257,217,265,288,278,204,216,222,239,231,237,238,248,262,233,227,294,224,218,239,223,282,237,202,281,293,268,222,232,215,251,272,255,283,209,211,258,236,270,287,201,210,219,253,263,292,284,281,256,225,288,234,223,280,218,222,270,204,232,287,231,234,284,261,254,286,240,235,287,244,268,258,212,212,291,216,259,269,265,252,210,292,248,213,251,239,284,240,246,206,227,295,220,248,236,232,268,288,266,208,291,287,237,231,291,243,224,276,250,250,201,254,215,243,290,232,210,261,203,219,291,216,254,247,287,294,205,243,243,206,271,290,278,259,199,212,262,262,264,247,212,254,207,217,221,280,219,258,207,204,238,267,292,285,231,212,252,269,253,283,261,250,295,248,293,202,256,249,251,279,253,272,254,271,255,281,243,289,205,268,255,242,283,230,250,291,209,222,285,271,227,247,276,240,272,224,275,254,224,225,287,239,291,235,234,285,212,206,227,255,286,250,212,250,295,291,288,284,219,287,244,295,285,257,242,267,213,231,285,262,201,217,233,282,274,223,230,274,259,281,213,258,266,240,206,220,255,273,297,240,241,271,220,261,204,274,215,279,282,226,266,210,286,218,296,263,215,230,271,205,229,244,293,222,251,286,291,241,294,266,282,226,287,232,222,270,290,254,294,202,223,253,259,274,300,284,234,214,211,252,239,234,215,248,292,242,221,282,284,248,272,259,241,213,264,246,269,258,221,210,214,211,253,205,290,251,254,222,282,222,266,268,254,200,282,242,288,221,265,293,283,264,210,287,279,207,219,261,201,257,216,205,249,287,270,255,270,278,290,288,242,256,245,252,247,268,210,219,239,233,226,220,229,275,276,255,266,239,259,215,236,233,279,224,286,281,289,223,222,221,244,284,249,215,208,215,290,244,268,274,274,224,224,273,275,245,236,248,279,279,216,215,291,267,272,208,273,284,221,202,286,272,218,273,271];
N=[8971,26230,10173,9539,16113,10673,3471,6302,1329,10928,9522,10181,12875,3011,7067,7973,16245,10836,9769,11748,11159,4545,1919];
